100	102160

239 339
992 1092
952 1052
145 245
223 323
369 469
254 354
943 1043
642 742
519 619
26 126
517 617
415 515
570 670
657 757
702 802
870 970
668 768
243 343
665 765
746 846
735 835
871 971
969 1069
100 200
873 973
931 1031
823 923
318 418
140 240
113 213
531 631
509 609
634 734
243 343
476 576
505 605
61 161
555 655
226 326
71 171
155 255
578 678
320 420
633 733
881 981
670 770
982 1082
187 287
404 504
893 993
747 847
993 1093
87 187
736 836
645 745
530 630
724 824
20 120
253 353
249 349
951 1051
439 539
92 192
178 278
795 895
521 621
286 386
479 579
44 144
15 115
454 554
176 276
565 665
197 297
979 1079
614 714
679 779
838 938
460 560
273 373
857 957
758 858
420 520
913 1013
236 336
41 141
744 844
794 894
524 624
886 986
10 110
361 461
837 937
184 284
793 893
516 616
505 605
411 511
527 627
